n = 10;

m = 16;
  	
58	42	9	67	64	59	58	35	41	6	
49	3	32	43	6	3	64	53	71	55	
35	46	11	26	53	18	32	9	43	33	
17	38	51	5	74	25	25	19	51	67	
27	51	35	9	59	24	33	12	36	37	
30	29	73	6	12	68	12	57	30	22	
55	53	61	12	19	34	73	30	5	10	
29	68	43	55	55	24	59	20	15	54	
50	64	8	71	44	36	15	50	64	51	
73	39	5	23	51	50	29	5	58	50	
45	72	11	2	12	51	24	47	6	14	
71	53	19	24	18	67	49	62	15	8	
44	47	25	23	42	64	10	58	5	58	
26	47	27	50	24	4	51	65	53	25	
52	4	50	31	6	51	13	33	70	40	
27	51	35	9	59	24	33	12	36	37	

